6	6	220	243	227
750000	750000
0	0	0	50	50	50	5	1	1	0	0	0
0	193	0	50	243	50	2	2	2	0	0	0
0	0	50	50	50	100	3	3	3	0	0	0
0	50	0	50	100	50	4	4	4	0	0	0
0	143	0	50	193	50	1	5	5	0	0	0
0	193	50	50	243	100	0	6	6	0	0	0
6	1

220	243	227

0	50	1	50	1	50	1	1	10000	40000	40000	40000	0	0	Item0

1	50	1	50	1	50	1	1	10000	40000	40000	40000	0	0	Item1

2	50	1	50	1	50	1	1	10000	40000	40000	40000	0	0	Item2

3	50	1	50	1	50	1	1	10000	40000	40000	40000	0	0	Item3

4	50	1	50	1	50	1	1	10000	40000	40000	40000	0	0	Item4

5	50	1	50	1	50	1	1	10000	40000	40000	40000	0	0	Item5

